33D32945 STP File, STP Format Version 1.0

SECTION Comments
Name "edge_n12_d3_s32"
Problem "Euclidean Steiner Tree Problem"
Remark "Generated with STPGenerator. 3 dimensions."
END

SECTION Graph
Nodes 12
END

SECTION Coordinates
DDD 0 0.4496756841 0.4496756841 0.4496756841
DDD 1 0.6990365287 0.6990365287 0.6990365287
DDD 2 0.6652369316 0.6652369316 0.6652369316
DDD 3 0.7215187111 0.7215187111 0.7215187111
DDD 4 0.8656997224 0.8656997224 0.8656997224
DDD 5 0.5431189162 0.5431189162 0.5431189162
DDD 6 0.5266172777 0.5266172777 0.5266172777
DDD 7 0.9129774263 0.9129774263 0.9129774263
DDD 8 0.7480876026 0.7480876026 0.7480876026
DDD 9 0.1786557348 0.1786557348 0.1786557348
DDD 10 0.2697567126 0.2697567126 0.2697567126
DDD 11 0.1478463012 0.1478463012 0.1478463012
END
